n_res = 4;
rc = [ 45, 25, 20, 22 ];
n_tasks = 90;
d = [ 3, 2, 10, 8, 1, 10, 1, 9, 6, 5, 4, 1, 1, 8, 6, 8, 6, 10, 3, 1, 8, 2, 2, 7, 5, 5, 2, 9, 9, 7, 6, 5, 10, 6, 6, 4, 10, 9, 10, 4, 7, 6, 6, 2, 3, 1, 10, 2, 9, 2, 6, 10, 2, 6, 1, 4, 1, 9, 4, 5, 3, 7, 7, 2, 4, 3, 6, 8, 4, 4, 5, 3, 4, 10, 3, 10, 8, 7, 7, 3, 9, 9, 5, 9, 5, 3, 10, 4, 5, 8 ];
rr = [| 7, 9, 0, 10, 0, 0, 0, 0, 1, 0, 0, 10, 0, 0, 0, 0, 0, 0, 0, 0, 0, 0, 0, 7, 10, 1, 0, 0, 8, 0, 0, 0, 0, 0, 4, 7, 0, 0, 9, 10, 0, 0, 0, 0, 0, 0, 4, 0, 10, 7, 0, 0, 0, 3, 1, 0, 0, 10, 5, 0, 8, 0, 0, 0, 0, 0, 0, 0, 0, 0, 0, 8, 0, 7, 0, 0, 0, 5, 0, 6, 0, 0, 0, 0, 9, 0, 0, 8, 6, 0
      | 0, 0, 2, 0, 0, 0, 0, 8, 0, 0, 2, 0, 0, 0, 0, 0, 7, 0, 0, 0, 6, 0, 0, 0, 0, 0, 0, 0, 0, 4, 5, 2, 4, 7, 0, 0, 0, 0, 0, 0, 10, 0, 5, 0, 0, 0, 0, 8, 0, 0, 0, 0, 0, 0, 0, 0, 0, 0, 0, 0, 0, 0, 0, 0, 0, 0, 0, 0, 0, 0, 6, 0, 0, 0, 0, 7, 2, 0, 0, 0, 8, 0, 6, 0, 0, 0, 0, 0, 0, 0
      | 0, 0, 0, 0, 0, 8, 0, 0, 0, 6, 0, 0, 0, 0, 0, 0, 0, 2, 0, 0, 0, 0, 0, 0, 0, 0, 1, 2, 0, 0, 0, 0, 0, 0, 0, 0, 3, 8, 0, 0, 0, 9, 0, 0, 0, 0, 0, 0, 0, 0, 0, 0, 5, 0, 0, 0, 0, 0, 0, 0, 0, 0, 4, 0, 7, 7, 3, 7, 0, 2, 0, 0, 0, 0, 0, 0, 0, 0, 6, 0, 0, 0, 0, 0, 0, 0, 4, 0, 0, 8
      | 0, 0, 0, 0, 3, 0, 2, 0, 0, 0, 0, 0, 7, 1, 2, 3, 0, 0, 5, 9, 0, 7, 3, 0, 0, 0, 0, 0, 0, 0, 0, 0, 0, 0, 0, 0, 0, 0, 0, 0, 0, 0, 0, 9, 5, 10, 0, 0, 0, 0, 2, 8, 0, 0, 0, 8, 8, 0, 0, 10, 0, 6, 0, 10, 0, 0, 0, 0, 5, 0, 0, 0, 1, 0, 6, 0, 0, 0, 0, 0, 0, 8, 0, 7, 0, 2, 0, 0, 0, 0 |];
suc = [ { 10, 14, 31 },
       { 4, 5, 13 },
       { 6, 9, 18 },
       { 8, 16, 20 },
       { 7, 70 },
       { 11, 34, 80 },
       { 15, 40 },
       { 22 },
       { 21, 24, 41 },
       { 19, 26 },
       { 12, 46 },
       { 17 },
       { 22, 42, 43 },
       { 78 },
       { 28, 55 },
       { 36 },
       { 35 },
       { 50 },
       { 35 },
       { 39 },
       { 89 },
       { 23, 27, 64 },
       { 25, 38, 47 },
       { 29, 82, 83 },
       { 53 },
       { 48, 60 },
       { 32 },
       { 35, 45 },
       { 30, 37, 49 },
       { 33 },
       { 33 },
       { 53, 90 },
       { 52 },
       { 59 },
       { 48, 69 },
       { 63 },
       { 39, 77 },
       { 44, 51, 59 },
       { 62 },
       { 68 },
       { 71 },
       { 75 },
       { 61, 84 },
       { 49, 52 },
       { 54, 57, 58 },
       { 50, 73 },
       { 55 },
       { 52, 63, 66 },
       { 87 },
       { 86 },
       { 56 },
       { 73 },
       { 67 },
       { 69 },
       { 61 },
       { 69 },
       { 71 },
       { 75 },
       { 61, 63 },
       { 62, 65, 85 },
       { 72, 76 },
       { 80 },
       { 88 },
       { 68 },
       { 67 },
       { 82 },
       { 74 },
       { 74 },
       { 81 },
       { 71 },
       { 79 },
       { 79 },
       { 81 },
       { 75 },
       { 82 },
       { 83 },
       { 78 },
       { 79 },
       { 86 },
       { 86 },
       { 84 },
       { 87 },
       { 89 },
       { 90 },
       { 88 },
       { 88 },
       { 89 },
       {  },
       {  },
       {  } ];
